1600 3200
1 2 3
1 41 2
2 3 5
2 42 4
3 4 4
3 43 1
4 5 5
4 44 5
5 6 5
5 45 2
6 7 5
6 46 4
7 8 3
7 47 3
8 9 1
8 48 5
9 10 3
9 49 1
10 11 3
10 50 2
11 12 3
11 51 3
12 13 5
12 52 1
13 14 4
13 53 2
14 15 2
14 54 2
15 16 2
15 55 5
16 17 2
16 56 5
17 18 3
17 57 5
18 19 1
18 58 5
19 20 5
19 59 1
20 21 4
20 60 5
21 22 5
21 61 1
22 23 2
22 62 1
23 24 4
23 63 2
24 25 3
24 64 3
25 26 3
25 65 4
26 27 4
26 66 5
27 28 3
27 67 5
28 29 1
28 68 3
29 30 1
29 69 2
30 31 2
30 70 3
31 32 2
31 71 2
32 33 3
32 72 1
33 34 4
33 73 3
34 35 3
34 74 2
35 36 1
35 75 3
36 37 1
36 76 4
37 38 4
37 77 2
38 39 5
38 78 3
39 40 3
39 79 4
40 80 1
41 42 4
41 81 3
42 43 4
42 82 5
43 44 3
43 83 4
44 45 2
44 84 5
45 46 5
45 85 4
46 47 2
46 86 3
47 48 4
47 87 3
48 49 5
48 88 4
49 50 2
49 89 3
50 51 1
50 90 3
51 52 2
51 91 4
52 53 2
52 92 5
53 54 1
53 93 2
54 55 3
54 94 3
55 56 4
55 95 4
56 57 5
56 96 1
57 58 4
57 97 2
58 59 1
58 98 1
59 60 5
59 99 5
60 61 1
60 100 1
61 62 4
61 101 3
62 63 2
62 102 4
63 64 1
63 103 5
64 65 3
64 104 4
65 66 2
65 105 2
66 67 3
66 106 4
67 68 5
67 107 4
68 69 4
68 108 3
69 70 5
69 109 4
70 71 3
70 110 2
71 72 2
71 111 3
72 73 5
72 112 1
73 74 2
73 113 5
74 75 2
74 114 1
75 76 1
75 115 3
76 77 2
76 116 5
77 78 2
77 117 1
78 79 2
78 118 2
79 80 4
79 119 1
80 120 1
81 82 5
81 121 2
82 83 2
82 122 4
83 84 2
83 123 3
84 85 1
84 124 2
85 86 1
85 125 2
86 87 3
86 126 5
87 88 2
87 127 1
88 89 3
88 128 4
89 90 5
89 129 5
90 91 3
90 130 4
91 92 5
91 131 4
92 93 2
92 132 2
93 94 4
93 133 5
94 95 2
94 134 2
95 96 2
95 135 5
96 97 4
96 136 1
97 98 2
97 137 2
98 99 1
98 138 4
99 100 4
99 139 1
100 101 2
100 140 1
101 102 2
101 141 2
102 103 2
102 142 4
103 104 4
103 143 4
104 105 3
104 144 4
105 106 1
105 145 3
106 107 5
106 146 2
107 108 4
107 147 5
108 109 4
108 148 1
109 110 1
109 149 3
110 111 3
110 150 2
111 112 3
111 151 5
112 113 4
112 152 4
113 114 3
113 153 1
114 115 5
114 154 4
115 116 4
115 155 5
116 117 4
116 156 2
117 118 2
117 157 1
118 119 3
118 158 2
119 120 4
119 159 2
120 160 4
121 122 5
121 161 5
122 123 1
122 162 2
123 124 2
123 163 2
124 125 1
124 164 1
125 126 4
125 165 5
126 127 3
126 166 2
127 128 4
127 167 4
128 129 2
128 168 5
129 130 5
129 169 2
130 131 5
130 170 3
131 132 4
131 171 3
132 133 1
132 172 5
133 134 4
133 173 4
134 135 2
134 174 1
135 136 3
135 175 3
136 137 3
136 176 1
137 138 4
137 177 5
138 139 1
138 178 2
139 140 4
139 179 4
140 141 2
140 180 2
141 142 1
141 181 3
142 143 1
142 182 3
143 144 5
143 183 3
144 145 2
144 184 3
145 146 3
145 185 3
146 147 4
146 186 3
147 148 3
147 187 2
148 149 3
148 188 3
149 150 2
149 189 1
150 151 3
150 190 3
151 152 2
151 191 1
152 153 3
152 192 3
153 154 1
153 193 3
154 155 3
154 194 5
155 156 3
155 195 3
156 157 2
156 196 1
157 158 3
157 197 2
158 159 3
158 198 1
159 160 2
159 199 5
160 200 1
161 162 1
161 201 4
162 163 4
162 202 3
163 164 1
163 203 4
164 165 5
164 204 5
165 166 3
165 205 5
166 167 5
166 206 1
167 168 2
167 207 2
168 169 1
168 208 2
169 170 3
169 209 3
170 171 1
170 210 3
171 172 3
171 211 2
172 173 4
172 212 3
173 174 1
173 213 3
174 175 1
174 214 2
175 176 5
175 215 3
176 177 4
176 216 2
177 178 2
177 217 5
178 179 2
178 218 4
179 180 1
179 219 1
180 181 1
180 220 1
181 182 5
181 221 1
182 183 3
182 222 4
183 184 3
183 223 1
184 185 4
184 224 2
185 186 3
185 225 4
186 187 2
186 226 1
187 188 3
187 227 5
188 189 1
188 228 5
189 190 3
189 229 1
190 191 2
190 230 4
191 192 3
191 231 3
192 193 4
192 232 3
193 194 1
193 233 1
194 195 5
194 234 5
195 196 1
195 235 1
196 197 3
196 236 3
197 198 2
197 237 4
198 199 4
198 238 4
199 200 5
199 239 2
200 240 4
201 202 1
201 241 1
202 203 2
202 242 4
203 204 2
203 243 3
204 205 3
204 244 3
205 206 2
205 245 1
206 207 2
206 246 3
207 208 2
207 247 2
208 209 3
208 248 4
209 210 5
209 249 1
210 211 1
210 250 1
211 212 1
211 251 4
212 213 2
212 252 5
213 214 5
213 253 4
214 215 4
214 254 3
215 216 2
215 255 4
216 217 2
216 256 4
217 218 4
217 257 1
218 219 5
218 258 3
219 220 1
219 259 2
220 221 2
220 260 3
221 222 2
221 261 2
222 223 4
222 262 1
223 224 2
223 263 1
224 225 4
224 264 1
225 226 4
225 265 2
226 227 5
226 266 1
227 228 3
227 267 1
228 229 5
228 268 1
229 230 1
229 269 2
230 231 5
230 270 4
231 232 3
231 271 4
232 233 4
232 272 5
233 234 2
233 273 5
234 235 2
234 274 2
235 236 4
235 275 1
236 237 2
236 276 2
237 238 3
237 277 1
238 239 4
238 278 1
239 240 4
239 279 4
240 280 4
241 242 4
241 281 5
242 243 4
242 282 4
243 244 1
243 283 2
244 245 4
244 284 3
245 246 2
245 285 1
246 247 2
246 286 2
247 248 4
247 287 1
248 249 2
248 288 1
249 250 1
249 289 5
250 251 5
250 290 3
251 252 2
251 291 3
252 253 4
252 292 2
253 254 3
253 293 1
254 255 2
254 294 4
255 256 4
255 295 5
256 257 4
256 296 1
257 258 3
257 297 2
258 259 3
258 298 5
259 260 1
259 299 4
260 261 5
260 300 1
261 262 2
261 301 1
262 263 1
262 302 5
263 264 3
263 303 2
264 265 2
264 304 1
265 266 4
265 305 4
266 267 4
266 306 1
267 268 1
267 307 4
268 269 4
268 308 3
269 270 4
269 309 3
270 271 4
270 310 4
271 272 3
271 311 1
272 273 3
272 312 3
273 274 1
273 313 4
274 275 5
274 314 2
275 276 3
275 315 3
276 277 1
276 316 5
277 278 5
277 317 2
278 279 4
278 318 3
279 280 3
279 319 5
280 320 4
281 282 2
281 321 5
282 283 3
282 322 5
283 284 2
283 323 3
284 285 3
284 324 2
285 286 5
285 325 1
286 287 5
286 326 5
287 288 5
287 327 4
288 289 3
288 328 3
289 290 2
289 329 4
290 291 4
290 330 5
291 292 1
291 331 5
292 293 2
292 332 4
293 294 2
293 333 2
294 295 4
294 334 3
295 296 3
295 335 4
296 297 2
296 336 2
297 298 1
297 337 4
298 299 3
298 338 4
299 300 1
299 339 4
300 301 1
300 340 5
301 302 2
301 341 2
302 303 3
302 342 4
303 304 1
303 343 1
304 305 3
304 344 3
305 306 2
305 345 2
306 307 1
306 346 4
307 308 4
307 347 4
308 309 5
308 348 4
309 310 1
309 349 4
310 311 5
310 350 3
311 312 1
311 351 1
312 313 1
312 352 1
313 314 3
313 353 2
314 315 1
314 354 1
315 316 3
315 355 1
316 317 1
316 356 1
317 318 4
317 357 3
318 319 1
318 358 3
319 320 3
319 359 2
320 360 1
321 322 3
321 361 2
322 323 3
322 362 2
323 324 3
323 363 4
324 325 1
324 364 1
325 326 4
325 365 2
326 327 4
326 366 3
327 328 4
327 367 3
328 329 2
328 368 1
329 330 1
329 369 5
330 331 1
330 370 5
331 332 1
331 371 1
332 333 1
332 372 5
333 334 2
333 373 4
334 335 5
334 374 1
335 336 1
335 375 1
336 337 5
336 376 2
337 338 4
337 377 3
338 339 1
338 378 4
339 340 4
339 379 2
340 341 2
340 380 2
341 342 4
341 381 3
342 343 3
342 382 3
343 344 1
343 383 5
344 345 4
344 384 3
345 346 2
345 385 2
346 347 1
346 386 3
347 348 5
347 387 5
348 349 2
348 388 1
349 350 1
349 389 2
350 351 4
350 390 4
351 352 1
351 391 4
352 353 5
352 392 2
353 354 4
353 393 5
354 355 4
354 394 5
355 356 5
355 395 1
356 357 2
356 396 4
357 358 1
357 397 2
358 359 1
358 398 4
359 360 1
359 399 2
360 400 2
361 362 2
361 401 4
362 363 4
362 402 2
363 364 5
363 403 5
364 365 1
364 404 1
365 366 1
365 405 1
366 367 5
366 406 5
367 368 2
367 407 5
368 369 2
368 408 3
369 370 2
369 409 1
370 371 1
370 410 5
371 372 1
371 411 1
372 373 5
372 412 3
373 374 4
373 413 3
374 375 4
374 414 1
375 376 1
375 415 1
376 377 2
376 416 3
377 378 3
377 417 4
378 379 4
378 418 4
379 380 5
379 419 2
380 381 1
380 420 1
381 382 5
381 421 2
382 383 1
382 422 1
383 384 1
383 423 3
384 385 2
384 424 3
385 386 4
385 425 4
386 387 4
386 426 2
387 388 5
387 427 1
388 389 1
388 428 2
389 390 3
389 429 5
390 391 1
390 430 2
391 392 2
391 431 4
392 393 4
392 432 1
393 394 2
393 433 1
394 395 5
394 434 1
395 396 1
395 435 2
396 397 3
396 436 4
397 398 2
397 437 5
398 399 1
398 438 3
399 400 1
399 439 4
400 440 2
401 402 2
401 441 4
402 403 2
402 442 1
403 404 3
403 443 1
404 405 1
404 444 4
405 406 2
405 445 2
406 407 5
406 446 1
407 408 2
407 447 1
408 409 5
408 448 1
409 410 4
409 449 4
410 411 5
410 450 4
411 412 2
411 451 3
412 413 3
412 452 4
413 414 2
413 453 4
414 415 4
414 454 3
415 416 3
415 455 4
416 417 3
416 456 3
417 418 4
417 457 2
418 419 5
418 458 4
419 420 2
419 459 4
420 421 1
420 460 1
421 422 5
421 461 2
422 423 3
422 462 4
423 424 5
423 463 4
424 425 4
424 464 4
425 426 4
425 465 2
426 427 1
426 466 5
427 428 5
427 467 4
428 429 5
428 468 3
429 430 5
429 469 1
430 431 1
430 470 4
431 432 5
431 471 1
432 433 2
432 472 2
433 434 1
433 473 4
434 435 3
434 474 5
435 436 5
435 475 3
436 437 2
436 476 5
437 438 4
437 477 2
438 439 4
438 478 4
439 440 1
439 479 2
440 480 5
441 442 1
441 481 3
442 443 5
442 482 3
443 444 2
443 483 4
444 445 1
444 484 5
445 446 4
445 485 3
446 447 1
446 486 5
447 448 2
447 487 1
448 449 3
448 488 1
449 450 2
449 489 2
450 451 5
450 490 5
451 452 4
451 491 3
452 453 1
452 492 1
453 454 1
453 493 5
454 455 2
454 494 4
455 456 3
455 495 5
456 457 3
456 496 4
457 458 1
457 497 2
458 459 2
458 498 2
459 460 3
459 499 5
460 461 4
460 500 3
461 462 2
461 501 1
462 463 3
462 502 4
463 464 1
463 503 3
464 465 3
464 504 3
465 466 5
465 505 1
466 467 4
466 506 4
467 468 3
467 507 2
468 469 4
468 508 4
469 470 3
469 509 1
470 471 3
470 510 1
471 472 3
471 511 3
472 473 2
472 512 2
473 474 2
473 513 4
474 475 5
474 514 5
475 476 4
475 515 4
476 477 2
476 516 4
477 478 2
477 517 4
478 479 2
478 518 2
479 480 5
479 519 3
480 520 2
481 482 1
481 521 4
482 483 1
482 522 4
483 484 1
483 523 3
484 485 5
484 524 4
485 486 5
485 525 4
486 487 4
486 526 5
487 488 2
487 527 5
488 489 4
488 528 3
489 490 2
489 529 1
490 491 2
490 530 3
491 492 5
491 531 2
492 493 2
492 532 5
493 494 3
493 533 2
494 495 2
494 534 1
495 496 5
495 535 2
496 497 2
496 536 2
497 498 1
497 537 5
498 499 5
498 538 1
499 500 2
499 539 3
500 501 2
500 540 3
501 502 3
501 541 5
502 503 3
502 542 3
503 504 3
503 543 1
504 505 1
504 544 4
505 506 5
505 545 5
506 507 4
506 546 4
507 508 4
507 547 1
508 509 5
508 548 3
509 510 1
509 549 1
510 511 3
510 550 3
511 512 2
511 551 1
512 513 3
512 552 5
513 514 2
513 553 2
514 515 3
514 554 3
515 516 3
515 555 2
516 517 5
516 556 4
517 518 5
517 557 2
518 519 5
518 558 4
519 520 3
519 559 3
520 560 5
521 522 1
521 561 1
522 523 3
522 562 4
523 524 2
523 563 5
524 525 2
524 564 5
525 526 2
525 565 2
526 527 3
526 566 2
527 528 5
527 567 5
528 529 5
528 568 5
529 530 1
529 569 2
530 531 5
530 570 3
531 532 3
531 571 5
532 533 1
532 572 1
533 534 2
533 573 4
534 535 3
534 574 2
535 536 1
535 575 1
536 537 3
536 576 3
537 538 4
537 577 5
538 539 1
538 578 4
539 540 5
539 579 1
540 541 2
540 580 2
541 542 5
541 581 1
542 543 5
542 582 1
543 544 2
543 583 3
544 545 2
544 584 1
545 546 2
545 585 1
546 547 2
546 586 2
547 548 3
547 587 2
548 549 1
548 588 1
549 550 5
549 589 1
550 551 2
550 590 4
551 552 3
551 591 3
552 553 2
552 592 4
553 554 1
553 593 3
554 555 4
554 594 4
555 556 4
555 595 5
556 557 3
556 596 3
557 558 1
557 597 2
558 559 1
558 598 3
559 560 3
559 599 5
560 600 4
561 562 3
561 601 2
562 563 4
562 602 5
563 564 4
563 603 2
564 565 3
564 604 5
565 566 3
565 605 3
566 567 3
566 606 2
567 568 1
567 607 1
568 569 1
568 608 1
569 570 5
569 609 5
570 571 2
570 610 5
571 572 3
571 611 1
572 573 2
572 612 4
573 574 4
573 613 3
574 575 2
574 614 3
575 576 2
575 615 3
576 577 5
576 616 1
577 578 3
577 617 5
578 579 5
578 618 5
579 580 5
579 619 2
580 581 3
580 620 4
581 582 5
581 621 3
582 583 1
582 622 2
583 584 3
583 623 2
584 585 4
584 624 3
585 586 4
585 625 3
586 587 3
586 626 5
587 588 1
587 627 3
588 589 4
588 628 5
589 590 5
589 629 4
590 591 3
590 630 1
591 592 4
591 631 1
592 593 2
592 632 5
593 594 2
593 633 3
594 595 1
594 634 3
595 596 2
595 635 5
596 597 1
596 636 5
597 598 1
597 637 2
598 599 5
598 638 2
599 600 2
599 639 1
600 640 3
601 602 1
601 641 3
602 603 3
602 642 5
603 604 2
603 643 1
604 605 1
604 644 5
605 606 5
605 645 2
606 607 2
606 646 4
607 608 3
607 647 2
608 609 1
608 648 2
609 610 3
609 649 5
610 611 1
610 650 4
611 612 5
611 651 4
612 613 5
612 652 1
613 614 4
613 653 2
614 615 4
614 654 3
615 616 3
615 655 4
616 617 4
616 656 4
617 618 4
617 657 1
618 619 3
618 658 3
619 620 4
619 659 2
620 621 3
620 660 4
621 622 5
621 661 3
622 623 3
622 662 1
623 624 1
623 663 5
624 625 5
624 664 2
625 626 2
625 665 4
626 627 4
626 666 2
627 628 2
627 667 1
628 629 5
628 668 5
629 630 4
629 669 3
630 631 4
630 670 4
631 632 2
631 671 3
632 633 5
632 672 3
633 634 5
633 673 4
634 635 2
634 674 1
635 636 5
635 675 2
636 637 3
636 676 5
637 638 5
637 677 5
638 639 5
638 678 3
639 640 4
639 679 2
640 680 5
641 642 4
641 681 2
642 643 5
642 682 1
643 644 3
643 683 4
644 645 1
644 684 2
645 646 4
645 685 5
646 647 5
646 686 4
647 648 4
647 687 5
648 649 4
648 688 2
649 650 4
649 689 5
650 651 4
650 690 5
651 652 4
651 691 1
652 653 1
652 692 1
653 654 5
653 693 5
654 655 4
654 694 3
655 656 5
655 695 5
656 657 1
656 696 4
657 658 4
657 697 4
658 659 2
658 698 5
659 660 4
659 699 1
660 661 3
660 700 4
661 662 2
661 701 2
662 663 2
662 702 1
663 664 5
663 703 1
664 665 1
664 704 2
665 666 5
665 705 5
666 667 5
666 706 5
667 668 1
667 707 2
668 669 2
668 708 3
669 670 1
669 709 4
670 671 1
670 710 1
671 672 5
671 711 4
672 673 2
672 712 5
673 674 2
673 713 3
674 675 4
674 714 3
675 676 4
675 715 3
676 677 4
676 716 3
677 678 1
677 717 3
678 679 1
678 718 3
679 680 2
679 719 1
680 720 4
681 682 1
681 721 3
682 683 3
682 722 3
683 684 1
683 723 2
684 685 5
684 724 4
685 686 4
685 725 1
686 687 1
686 726 2
687 688 3
687 727 5
688 689 3
688 728 2
689 690 5
689 729 5
690 691 4
690 730 5
691 692 3
691 731 4
692 693 3
692 732 5
693 694 2
693 733 1
694 695 3
694 734 3
695 696 5
695 735 2
696 697 5
696 736 4
697 698 1
697 737 2
698 699 1
698 738 4
699 700 3
699 739 3
700 701 3
700 740 4
701 702 3
701 741 4
702 703 3
702 742 2
703 704 4
703 743 5
704 705 3
704 744 2
705 706 4
705 745 1
706 707 2
706 746 2
707 708 3
707 747 5
708 709 3
708 748 2
709 710 3
709 749 5
710 711 5
710 750 5
711 712 5
711 751 3
712 713 1
712 752 4
713 714 4
713 753 5
714 715 2
714 754 2
715 716 3
715 755 3
716 717 5
716 756 1
717 718 1
717 757 4
718 719 2
718 758 5
719 720 2
719 759 3
720 760 1
721 722 5
721 761 5
722 723 2
722 762 2
723 724 4
723 763 3
724 725 4
724 764 3
725 726 5
725 765 3
726 727 2
726 766 1
727 728 2
727 767 3
728 729 3
728 768 3
729 730 2
729 769 4
730 731 3
730 770 2
731 732 1
731 771 5
732 733 2
732 772 1
733 734 1
733 773 4
734 735 5
734 774 3
735 736 1
735 775 4
736 737 3
736 776 5
737 738 4
737 777 1
738 739 3
738 778 5
739 740 4
739 779 1
740 741 1
740 780 2
741 742 3
741 781 4
742 743 2
742 782 5
743 744 2
743 783 1
744 745 3
744 784 4
745 746 1
745 785 3
746 747 2
746 786 1
747 748 5
747 787 5
748 749 2
748 788 4
749 750 2
749 789 3
750 751 1
750 790 4
751 752 5
751 791 3
752 753 5
752 792 4
753 754 5
753 793 3
754 755 2
754 794 4
755 756 1
755 795 2
756 757 4
756 796 1
757 758 4
757 797 4
758 759 4
758 798 4
759 760 4
759 799 5
760 800 5
761 762 2
761 801 3
762 763 1
762 802 5
763 764 2
763 803 1
764 765 3
764 804 1
765 766 4
765 805 3
766 767 4
766 806 4
767 768 4
767 807 5
768 769 1
768 808 1
769 770 3
769 809 5
770 771 5
770 810 4
771 772 1
771 811 3
772 773 3
772 812 1
773 774 2
773 813 4
774 775 4
774 814 5
775 776 4
775 815 2
776 777 3
776 816 1
777 778 4
777 817 3
778 779 2
778 818 4
779 780 2
779 819 1
780 781 3
780 820 5
781 782 1
781 821 4
782 783 4
782 822 2
783 784 3
783 823 2
784 785 4
784 824 3
785 786 1
785 825 3
786 787 2
786 826 3
787 788 1
787 827 3
788 789 5
788 828 5
789 790 3
789 829 5
790 791 5
790 830 3
791 792 5
791 831 2
792 793 2
792 832 3
793 794 1
793 833 4
794 795 3
794 834 3
795 796 1
795 835 2
796 797 5
796 836 4
797 798 3
797 837 1
798 799 4
798 838 2
799 800 1
799 839 1
800 840 2
801 802 5
801 841 4
802 803 2
802 842 5
803 804 4
803 843 4
804 805 3
804 844 3
805 806 5
805 845 3
806 807 1
806 846 2
807 808 4
807 847 2
808 809 3
808 848 3
809 810 4
809 849 1
810 811 5
810 850 1
811 812 4
811 851 1
812 813 4
812 852 3
813 814 2
813 853 1
814 815 3
814 854 5
815 816 2
815 855 4
816 817 3
816 856 2
817 818 1
817 857 3
818 819 3
818 858 4
819 820 4
819 859 5
820 821 3
820 860 2
821 822 5
821 861 5
822 823 3
822 862 4
823 824 2
823 863 1
824 825 4
824 864 5
825 826 1
825 865 4
826 827 2
826 866 3
827 828 3
827 867 5
828 829 4
828 868 5
829 830 4
829 869 3
830 831 3
830 870 5
831 832 2
831 871 3
832 833 3
832 872 4
833 834 5
833 873 1
834 835 4
834 874 1
835 836 4
835 875 2
836 837 5
836 876 4
837 838 5
837 877 3
838 839 1
838 878 5
839 840 2
839 879 1
840 880 4
841 842 2
841 881 3
842 843 3
842 882 3
843 844 4
843 883 5
844 845 3
844 884 1
845 846 1
845 885 1
846 847 1
846 886 5
847 848 5
847 887 1
848 849 1
848 888 4
849 850 4
849 889 3
850 851 3
850 890 2
851 852 5
851 891 3
852 853 3
852 892 1
853 854 2
853 893 2
854 855 3
854 894 4
855 856 1
855 895 1
856 857 3
856 896 5
857 858 4
857 897 4
858 859 4
858 898 1
859 860 3
859 899 2
860 861 3
860 900 2
861 862 1
861 901 3
862 863 5
862 902 2
863 864 3
863 903 1
864 865 1
864 904 2
865 866 4
865 905 1
866 867 5
866 906 2
867 868 1
867 907 4
868 869 5
868 908 3
869 870 2
869 909 1
870 871 5
870 910 4
871 872 2
871 911 2
872 873 4
872 912 5
873 874 1
873 913 5
874 875 5
874 914 1
875 876 3
875 915 5
876 877 2
876 916 3
877 878 4
877 917 2
878 879 4
878 918 4
879 880 3
879 919 1
880 920 2
881 882 4
881 921 4
882 883 5
882 922 4
883 884 3
883 923 5
884 885 3
884 924 2
885 886 3
885 925 1
886 887 5
886 926 4
887 888 4
887 927 4
888 889 2
888 928 3
889 890 5
889 929 2
890 891 5
890 930 3
891 892 4
891 931 2
892 893 1
892 932 2
893 894 3
893 933 5
894 895 5
894 934 1
895 896 1
895 935 5
896 897 4
896 936 1
897 898 5
897 937 4
898 899 4
898 938 2
899 900 3
899 939 2
900 901 1
900 940 3
901 902 2
901 941 5
902 903 3
902 942 5
903 904 4
903 943 5
904 905 4
904 944 4
905 906 2
905 945 1
906 907 2
906 946 4
907 908 5
907 947 1
908 909 1
908 948 5
909 910 4
909 949 3
910 911 1
910 950 3
911 912 1
911 951 4
912 913 5
912 952 3
913 914 1
913 953 2
914 915 1
914 954 4
915 916 4
915 955 1
916 917 5
916 956 4
917 918 4
917 957 4
918 919 1
918 958 5
919 920 4
919 959 4
920 960 5
921 922 3
921 961 1
922 923 1
922 962 4
923 924 4
923 963 3
924 925 3
924 964 4
925 926 5
925 965 3
926 927 5
926 966 3
927 928 4
927 967 3
928 929 4
928 968 2
929 930 1
929 969 2
930 931 4
930 970 3
931 932 5
931 971 4
932 933 1
932 972 5
933 934 1
933 973 2
934 935 2
934 974 3
935 936 5
935 975 4
936 937 5
936 976 3
937 938 5
937 977 3
938 939 5
938 978 4
939 940 1
939 979 2
940 941 1
940 980 5
941 942 3
941 981 4
942 943 5
942 982 1
943 944 4
943 983 2
944 945 5
944 984 1
945 946 2
945 985 4
946 947 3
946 986 5
947 948 3
947 987 4
948 949 4
948 988 1
949 950 2
949 989 5
950 951 5
950 990 5
951 952 3
951 991 3
952 953 5
952 992 5
953 954 4
953 993 1
954 955 2
954 994 3
955 956 5
955 995 4
956 957 4
956 996 1
957 958 4
957 997 4
958 959 3
958 998 4
959 960 5
959 999 4
960 1000 2
961 962 3
961 1001 2
962 963 1
962 1002 1
963 964 5
963 1003 1
964 965 2
964 1004 1
965 966 3
965 1005 2
966 967 5
966 1006 4
967 968 3
967 1007 1
968 969 1
968 1008 2
969 970 4
969 1009 1
970 971 4
970 1010 3
971 972 1
971 1011 5
972 973 1
972 1012 5
973 974 1
973 1013 5
974 975 4
974 1014 3
975 976 1
975 1015 2
976 977 2
976 1016 5
977 978 4
977 1017 5
978 979 3
978 1018 1
979 980 3
979 1019 2
980 981 1
980 1020 1
981 982 2
981 1021 4
982 983 5
982 1022 1
983 984 4
983 1023 4
984 985 3
984 1024 4
985 986 4
985 1025 4
986 987 5
986 1026 4
987 988 2
987 1027 5
988 989 4
988 1028 2
989 990 5
989 1029 2
990 991 5
990 1030 4
991 992 3
991 1031 3
992 993 4
992 1032 4
993 994 1
993 1033 5
994 995 2
994 1034 4
995 996 5
995 1035 1
996 997 2
996 1036 2
997 998 4
997 1037 3
998 999 3
998 1038 5
999 1000 5
999 1039 1
1000 1040 1
1001 1002 3
1001 1041 1
1002 1003 1
1002 1042 4
1003 1004 5
1003 1043 3
1004 1005 5
1004 1044 2
1005 1006 2
1005 1045 1
1006 1007 5
1006 1046 4
1007 1008 2
1007 1047 4
1008 1009 3
1008 1048 2
1009 1010 4
1009 1049 2
1010 1011 2
1010 1050 5
1011 1012 4
1011 1051 2
1012 1013 1
1012 1052 3
1013 1014 5
1013 1053 5
1014 1015 3
1014 1054 4
1015 1016 4
1015 1055 1
1016 1017 5
1016 1056 4
1017 1018 4
1017 1057 3
1018 1019 1
1018 1058 5
1019 1020 4
1019 1059 3
1020 1021 5
1020 1060 2
1021 1022 5
1021 1061 5
1022 1023 4
1022 1062 5
1023 1024 3
1023 1063 1
1024 1025 5
1024 1064 2
1025 1026 4
1025 1065 3
1026 1027 2
1026 1066 3
1027 1028 1
1027 1067 2
1028 1029 1
1028 1068 4
1029 1030 1
1029 1069 4
1030 1031 5
1030 1070 4
1031 1032 2
1031 1071 4
1032 1033 4
1032 1072 5
1033 1034 4
1033 1073 4
1034 1035 5
1034 1074 3
1035 1036 1
1035 1075 4
1036 1037 2
1036 1076 4
1037 1038 5
1037 1077 3
1038 1039 1
1038 1078 5
1039 1040 2
1039 1079 3
1040 1080 1
1041 1042 4
1041 1081 3
1042 1043 5
1042 1082 5
1043 1044 3
1043 1083 5
1044 1045 2
1044 1084 4
1045 1046 3
1045 1085 4
1046 1047 4
1046 1086 2
1047 1048 5
1047 1087 5
1048 1049 5
1048 1088 3
1049 1050 5
1049 1089 2
1050 1051 5
1050 1090 3
1051 1052 1
1051 1091 1
1052 1053 3
1052 1092 1
1053 1054 4
1053 1093 5
1054 1055 4
1054 1094 3
1055 1056 2
1055 1095 3
1056 1057 3
1056 1096 2
1057 1058 2
1057 1097 3
1058 1059 5
1058 1098 5
1059 1060 3
1059 1099 1
1060 1061 1
1060 1100 3
1061 1062 3
1061 1101 4
1062 1063 4
1062 1102 3
1063 1064 3
1063 1103 4
1064 1065 2
1064 1104 4
1065 1066 2
1065 1105 5
1066 1067 5
1066 1106 1
1067 1068 1
1067 1107 1
1068 1069 5
1068 1108 4
1069 1070 5
1069 1109 2
1070 1071 3
1070 1110 5
1071 1072 5
1071 1111 4
1072 1073 4
1072 1112 4
1073 1074 3
1073 1113 1
1074 1075 5
1074 1114 3
1075 1076 5
1075 1115 4
1076 1077 4
1076 1116 2
1077 1078 5
1077 1117 1
1078 1079 3
1078 1118 5
1079 1080 1
1079 1119 4
1080 1120 2
1081 1082 1
1081 1121 5
1082 1083 1
1082 1122 3
1083 1084 1
1083 1123 2
1084 1085 2
1084 1124 4
1085 1086 5
1085 1125 4
1086 1087 3
1086 1126 4
1087 1088 3
1087 1127 1
1088 1089 2
1088 1128 4
1089 1090 3
1089 1129 1
1090 1091 4
1090 1130 2
1091 1092 2
1091 1131 3
1092 1093 3
1092 1132 3
1093 1094 5
1093 1133 4
1094 1095 3
1094 1134 1
1095 1096 3
1095 1135 4
1096 1097 3
1096 1136 3
1097 1098 3
1097 1137 3
1098 1099 5
1098 1138 4
1099 1100 4
1099 1139 2
1100 1101 1
1100 1140 1
1101 1102 4
1101 1141 3
1102 1103 1
1102 1142 3
1103 1104 2
1103 1143 4
1104 1105 4
1104 1144 2
1105 1106 2
1105 1145 1
1106 1107 3
1106 1146 5
1107 1108 1
1107 1147 1
1108 1109 5
1108 1148 5
1109 1110 2
1109 1149 3
1110 1111 1
1110 1150 4
1111 1112 2
1111 1151 1
1112 1113 3
1112 1152 4
1113 1114 1
1113 1153 2
1114 1115 2
1114 1154 2
1115 1116 3
1115 1155 2
1116 1117 2
1116 1156 1
1117 1118 4
1117 1157 1
1118 1119 3
1118 1158 1
1119 1120 4
1119 1159 1
1120 1160 1
1121 1122 4
1121 1161 3
1122 1123 1
1122 1162 3
1123 1124 3
1123 1163 3
1124 1125 3
1124 1164 4
1125 1126 2
1125 1165 5
1126 1127 2
1126 1166 1
1127 1128 3
1127 1167 5
1128 1129 2
1128 1168 4
1129 1130 2
1129 1169 5
1130 1131 1
1130 1170 5
1131 1132 1
1131 1171 2
1132 1133 3
1132 1172 5
1133 1134 4
1133 1173 2
1134 1135 2
1134 1174 5
1135 1136 4
1135 1175 4
1136 1137 4
1136 1176 4
1137 1138 4
1137 1177 5
1138 1139 5
1138 1178 1
1139 1140 4
1139 1179 3
1140 1141 5
1140 1180 1
1141 1142 4
1141 1181 2
1142 1143 1
1142 1182 3
1143 1144 4
1143 1183 4
1144 1145 4
1144 1184 2
1145 1146 4
1145 1185 5
1146 1147 3
1146 1186 1
1147 1148 1
1147 1187 5
1148 1149 4
1148 1188 5
1149 1150 2
1149 1189 5
1150 1151 5
1150 1190 3
1151 1152 1
1151 1191 4
1152 1153 1
1152 1192 1
1153 1154 4
1153 1193 4
1154 1155 2
1154 1194 4
1155 1156 3
1155 1195 2
1156 1157 4
1156 1196 4
1157 1158 3
1157 1197 2
1158 1159 5
1158 1198 4
1159 1160 5
1159 1199 2
1160 1200 4
1161 1162 2
1161 1201 4
1162 1163 4
1162 1202 2
1163 1164 5
1163 1203 5
1164 1165 2
1164 1204 5
1165 1166 2
1165 1205 2
1166 1167 4
1166 1206 2
1167 1168 5
1167 1207 2
1168 1169 3
1168 1208 3
1169 1170 3
1169 1209 4
1170 1171 4
1170 1210 2
1171 1172 3
1171 1211 1
1172 1173 4
1172 1212 4
1173 1174 2
1173 1213 2
1174 1175 3
1174 1214 5
1175 1176 1
1175 1215 1
1176 1177 1
1176 1216 3
1177 1178 1
1177 1217 1
1178 1179 3
1178 1218 2
1179 1180 4
1179 1219 2
1180 1181 2
1180 1220 4
1181 1182 5
1181 1221 1
1182 1183 4
1182 1222 3
1183 1184 5
1183 1223 1
1184 1185 2
1184 1224 1
1185 1186 3
1185 1225 3
1186 1187 3
1186 1226 2
1187 1188 2
1187 1227 4
1188 1189 3
1188 1228 4
1189 1190 5
1189 1229 4
1190 1191 1
1190 1230 1
1191 1192 4
1191 1231 5
1192 1193 5
1192 1232 2
1193 1194 5
1193 1233 3
1194 1195 1
1194 1234 2
1195 1196 4
1195 1235 5
1196 1197 3
1196 1236 5
1197 1198 5
1197 1237 2
1198 1199 5
1198 1238 1
1199 1200 4
1199 1239 5
1200 1240 5
1201 1202 1
1201 1241 4
1202 1203 4
1202 1242 2
1203 1204 5
1203 1243 2
1204 1205 5
1204 1244 5
1205 1206 1
1205 1245 4
1206 1207 5
1206 1246 3
1207 1208 3
1207 1247 2
1208 1209 5
1208 1248 2
1209 1210 1
1209 1249 2
1210 1211 4
1210 1250 1
1211 1212 1
1211 1251 5
1212 1213 5
1212 1252 4
1213 1214 4
1213 1253 1
1214 1215 5
1214 1254 5
1215 1216 5
1215 1255 1
1216 1217 4
1216 1256 5
1217 1218 5
1217 1257 4
1218 1219 1
1218 1258 1
1219 1220 3
1219 1259 2
1220 1221 1
1220 1260 5
1221 1222 1
1221 1261 2
1222 1223 1
1222 1262 3
1223 1224 3
1223 1263 3
1224 1225 3
1224 1264 2
1225 1226 5
1225 1265 2
1226 1227 3
1226 1266 4
1227 1228 2
1227 1267 1
1228 1229 1
1228 1268 3
1229 1230 1
1229 1269 5
1230 1231 4
1230 1270 2
1231 1232 4
1231 1271 4
1232 1233 3
1232 1272 4
1233 1234 2
1233 1273 2
1234 1235 5
1234 1274 3
1235 1236 4
1235 1275 2
1236 1237 2
1236 1276 1
1237 1238 1
1237 1277 2
1238 1239 3
1238 1278 4
1239 1240 5
1239 1279 1
1240 1280 4
1241 1242 5
1241 1281 5
1242 1243 5
1242 1282 5
1243 1244 2
1243 1283 5
1244 1245 1
1244 1284 1
1245 1246 5
1245 1285 3
1246 1247 5
1246 1286 2
1247 1248 2
1247 1287 4
1248 1249 4
1248 1288 4
1249 1250 5
1249 1289 4
1250 1251 5
1250 1290 2
1251 1252 5
1251 1291 2
1252 1253 5
1252 1292 1
1253 1254 5
1253 1293 3
1254 1255 4
1254 1294 4
1255 1256 5
1255 1295 2
1256 1257 5
1256 1296 1
1257 1258 3
1257 1297 5
1258 1259 2
1258 1298 4
1259 1260 3
1259 1299 5
1260 1261 3
1260 1300 1
1261 1262 3
1261 1301 4
1262 1263 5
1262 1302 4
1263 1264 1
1263 1303 4
1264 1265 2
1264 1304 3
1265 1266 2
1265 1305 5
1266 1267 1
1266 1306 3
1267 1268 4
1267 1307 2
1268 1269 4
1268 1308 4
1269 1270 1
1269 1309 1
1270 1271 1
1270 1310 3
1271 1272 4
1271 1311 4
1272 1273 1
1272 1312 4
1273 1274 2
1273 1313 3
1274 1275 1
1274 1314 5
1275 1276 5
1275 1315 4
1276 1277 5
1276 1316 2
1277 1278 5
1277 1317 1
1278 1279 4
1278 1318 1
1279 1280 2
1279 1319 4
1280 1320 1
1281 1282 5
1281 1321 2
1282 1283 2
1282 1322 1
1283 1284 5
1283 1323 3
1284 1285 2
1284 1324 1
1285 1286 3
1285 1325 3
1286 1287 5
1286 1326 3
1287 1288 2
1287 1327 5
1288 1289 4
1288 1328 1
1289 1290 4
1289 1329 2
1290 1291 2
1290 1330 5
1291 1292 5
1291 1331 1
1292 1293 3
1292 1332 1
1293 1294 5
1293 1333 5
1294 1295 1
1294 1334 3
1295 1296 1
1295 1335 4
1296 1297 1
1296 1336 3
1297 1298 2
1297 1337 2
1298 1299 4
1298 1338 1
1299 1300 1
1299 1339 4
1300 1301 2
1300 1340 3
1301 1302 5
1301 1341 2
1302 1303 4
1302 1342 1
1303 1304 1
1303 1343 3
1304 1305 5
1304 1344 1
1305 1306 2
1305 1345 1
1306 1307 2
1306 1346 4
1307 1308 5
1307 1347 2
1308 1309 4
1308 1348 1
1309 1310 4
1309 1349 3
1310 1311 3
1310 1350 4
1311 1312 1
1311 1351 1
1312 1313 4
1312 1352 1
1313 1314 2
1313 1353 3
1314 1315 3
1314 1354 1
1315 1316 1
1315 1355 5
1316 1317 3
1316 1356 1
1317 1318 1
1317 1357 4
1318 1319 4
1318 1358 2
1319 1320 3
1319 1359 3
1320 1360 3
1321 1322 3
1321 1361 1
1322 1323 3
1322 1362 5
1323 1324 5
1323 1363 4
1324 1325 4
1324 1364 1
1325 1326 5
1325 1365 3
1326 1327 2
1326 1366 1
1327 1328 2
1327 1367 4
1328 1329 5
1328 1368 3
1329 1330 1
1329 1369 4
1330 1331 3
1330 1370 3
1331 1332 5
1331 1371 5
1332 1333 3
1332 1372 4
1333 1334 1
1333 1373 5
1334 1335 1
1334 1374 3
1335 1336 4
1335 1375 2
1336 1337 3
1336 1376 2
1337 1338 4
1337 1377 4
1338 1339 4
1338 1378 2
1339 1340 2
1339 1379 4
1340 1341 2
1340 1380 4
1341 1342 1
1341 1381 2
1342 1343 3
1342 1382 5
1343 1344 3
1343 1383 1
1344 1345 2
1344 1384 4
1345 1346 2
1345 1385 2
1346 1347 4
1346 1386 4
1347 1348 4
1347 1387 5
1348 1349 4
1348 1388 3
1349 1350 5
1349 1389 3
1350 1351 4
1350 1390 4
1351 1352 4
1351 1391 1
1352 1353 1
1352 1392 2
1353 1354 2
1353 1393 2
1354 1355 5
1354 1394 5
1355 1356 4
1355 1395 4
1356 1357 4
1356 1396 4
1357 1358 5
1357 1397 5
1358 1359 1
1358 1398 2
1359 1360 4
1359 1399 3
1360 1400 3
1361 1362 3
1361 1401 4
1362 1363 2
1362 1402 3
1363 1364 1
1363 1403 1
1364 1365 5
1364 1404 3
1365 1366 4
1365 1405 5
1366 1367 3
1366 1406 3
1367 1368 2
1367 1407 4
1368 1369 4
1368 1408 3
1369 1370 2
1369 1409 3
1370 1371 4
1370 1410 1
1371 1372 4
1371 1411 5
1372 1373 3
1372 1412 3
1373 1374 1
1373 1413 1
1374 1375 4
1374 1414 1
1375 1376 5
1375 1415 4
1376 1377 4
1376 1416 4
1377 1378 3
1377 1417 2
1378 1379 5
1378 1418 4
1379 1380 4
1379 1419 4
1380 1381 5
1380 1420 4
1381 1382 4
1381 1421 2
1382 1383 3
1382 1422 2
1383 1384 5
1383 1423 1
1384 1385 5
1384 1424 2
1385 1386 3
1385 1425 4
1386 1387 4
1386 1426 3
1387 1388 2
1387 1427 4
1388 1389 5
1388 1428 5
1389 1390 2
1389 1429 3
1390 1391 3
1390 1430 1
1391 1392 4
1391 1431 5
1392 1393 5
1392 1432 2
1393 1394 3
1393 1433 4
1394 1395 4
1394 1434 5
1395 1396 4
1395 1435 4
1396 1397 4
1396 1436 1
1397 1398 5
1397 1437 2
1398 1399 4
1398 1438 4
1399 1400 5
1399 1439 3
1400 1440 3
1401 1402 4
1401 1441 2
1402 1403 4
1402 1442 4
1403 1404 2
1403 1443 1
1404 1405 1
1404 1444 4
1405 1406 4
1405 1445 5
1406 1407 4
1406 1446 3
1407 1408 1
1407 1447 2
1408 1409 5
1408 1448 3
1409 1410 1
1409 1449 1
1410 1411 1
1410 1450 1
1411 1412 5
1411 1451 3
1412 1413 5
1412 1452 2
1413 1414 5
1413 1453 1
1414 1415 3
1414 1454 1
1415 1416 3
1415 1455 2
1416 1417 4
1416 1456 3
1417 1418 3
1417 1457 1
1418 1419 3
1418 1458 4
1419 1420 3
1419 1459 5
1420 1421 1
1420 1460 5
1421 1422 1
1421 1461 3
1422 1423 1
1422 1462 3
1423 1424 2
1423 1463 4
1424 1425 4
1424 1464 2
1425 1426 4
1425 1465 4
1426 1427 3
1426 1466 3
1427 1428 3
1427 1467 5
1428 1429 5
1428 1468 1
1429 1430 1
1429 1469 4
1430 1431 3
1430 1470 1
1431 1432 3
1431 1471 1
1432 1433 2
1432 1472 2
1433 1434 5
1433 1473 5
1434 1435 5
1434 1474 4
1435 1436 2
1435 1475 3
1436 1437 4
1436 1476 4
1437 1438 1
1437 1477 5
1438 1439 2
1438 1478 5
1439 1440 5
1439 1479 3
1440 1480 1
1441 1442 2
1441 1481 2
1442 1443 4
1442 1482 1
1443 1444 3
1443 1483 5
1444 1445 5
1444 1484 4
1445 1446 5
1445 1485 1
1446 1447 2
1446 1486 4
1447 1448 3
1447 1487 1
1448 1449 4
1448 1488 2
1449 1450 3
1449 1489 3
1450 1451 3
1450 1490 5
1451 1452 1
1451 1491 2
1452 1453 1
1452 1492 1
1453 1454 2
1453 1493 4
1454 1455 4
1454 1494 4
1455 1456 2
1455 1495 5
1456 1457 2
1456 1496 5
1457 1458 3
1457 1497 2
1458 1459 1
1458 1498 2
1459 1460 3
1459 1499 2
1460 1461 2
1460 1500 1
1461 1462 5
1461 1501 5
1462 1463 2
1462 1502 4
1463 1464 1
1463 1503 2
1464 1465 4
1464 1504 5
1465 1466 3
1465 1505 3
1466 1467 4
1466 1506 1
1467 1468 3
1467 1507 1
1468 1469 2
1468 1508 3
1469 1470 2
1469 1509 1
1470 1471 3
1470 1510 5
1471 1472 3
1471 1511 5
1472 1473 5
1472 1512 2
1473 1474 1
1473 1513 3
1474 1475 3
1474 1514 5
1475 1476 3
1475 1515 3
1476 1477 2
1476 1516 1
1477 1478 1
1477 1517 4
1478 1479 5
1478 1518 4
1479 1480 3
1479 1519 5
1480 1520 3
1481 1482 4
1481 1521 3
1482 1483 1
1482 1522 5
1483 1484 2
1483 1523 4
1484 1485 2
1484 1524 4
1485 1486 1
1485 1525 3
1486 1487 1
1486 1526 1
1487 1488 5
1487 1527 2
1488 1489 5
1488 1528 5
1489 1490 2
1489 1529 5
1490 1491 5
1490 1530 1
1491 1492 4
1491 1531 3
1492 1493 2
1492 1532 3
1493 1494 5
1493 1533 3
1494 1495 1
1494 1534 2
1495 1496 3
1495 1535 5
1496 1497 5
1496 1536 3
1497 1498 5
1497 1537 5
1498 1499 1
1498 1538 1
1499 1500 4
1499 1539 4
1500 1501 2
1500 1540 4
1501 1502 1
1501 1541 4
1502 1503 4
1502 1542 4
1503 1504 3
1503 1543 3
1504 1505 1
1504 1544 2
1505 1506 4
1505 1545 4
1506 1507 5
1506 1546 3
1507 1508 4
1507 1547 3
1508 1509 3
1508 1548 1
1509 1510 3
1509 1549 3
1510 1511 5
1510 1550 3
1511 1512 2
1511 1551 1
1512 1513 3
1512 1552 2
1513 1514 1
1513 1553 4
1514 1515 1
1514 1554 4
1515 1516 5
1515 1555 2
1516 1517 5
1516 1556 5
1517 1518 3
1517 1557 3
1518 1519 2
1518 1558 5
1519 1520 3
1519 1559 4
1520 1560 5
1521 1522 4
1521 1561 4
1522 1523 2
1522 1562 3
1523 1524 3
1523 1563 1
1524 1525 1
1524 1564 1
1525 1526 3
1525 1565 5
1526 1527 2
1526 1566 4
1527 1528 2
1527 1567 2
1528 1529 4
1528 1568 5
1529 1530 2
1529 1569 2
1530 1531 3
1530 1570 5
1531 1532 1
1531 1571 5
1532 1533 2
1532 1572 4
1533 1534 4
1533 1573 4
1534 1535 4
1534 1574 4
1535 1536 2
1535 1575 4
1536 1537 2
1536 1576 3
1537 1538 3
1537 1577 3
1538 1539 3
1538 1578 3
1539 1540 3
1539 1579 5
1540 1541 1
1540 1580 5
1541 1542 4
1541 1581 3
1542 1543 4
1542 1582 1
1543 1544 4
1543 1583 5
1544 1545 3
1544 1584 2
1545 1546 5
1545 1585 5
1546 1547 2
1546 1586 2
1547 1548 4
1547 1587 5
1548 1549 1
1548 1588 4
1549 1550 4
1549 1589 2
1550 1551 1
1550 1590 4
1551 1552 5
1551 1591 3
1552 1553 4
1552 1592 5
1553 1554 2
1553 1593 1
1554 1555 4
1554 1594 4
1555 1556 1
1555 1595 1
1556 1557 4
1556 1596 3
1557 1558 2
1557 1597 2
1558 1559 1
1558 1598 5
1559 1560 2
1559 1599 4
1560 1600 3
1561 1562 3
1562 1563 5
1563 1564 3
1564 1565 1
1565 1566 2
1566 1567 2
1567 1568 4
1568 1569 1
1569 1570 1
1570 1571 1
1571 1572 3
1572 1573 1
1573 1574 2
1574 1575 5
1575 1576 5
1576 1577 3
1577 1578 5
1578 1579 3
1579 1580 2
1580 1581 2
1581 1582 3
1582 1583 1
1583 1584 2
1584 1585 5
1585 1586 5
1586 1587 1
1587 1588 2
1588 1589 3
1589 1590 3
1590 1591 2
1591 1592 5
1592 1593 5
1593 1594 2
1594 1595 5
1595 1596 1
1596 1597 2
1597 1598 2
1598 1599 3
1599 1600 2
1 1561 3
2 1562 3
3 1563 4
4 1564 3
5 1565 1
6 1566 3
7 1567 3
8 1568 5
9 1569 4
10 1570 3
11 1571 2
12 1572 5
13 1573 5
14 1574 5
15 1575 4
16 1576 4
17 1577 3
18 1578 2
19 1579 5
20 1580 3
21 1581 4
22 1582 5
23 1583 2
24 1584 5
25 1585 4
26 1586 2
27 1587 3
28 1588 1
29 1589 2
30 1590 4
31 1591 1
32 1592 2
33 1593 1
34 1594 2
35 1595 2
36 1596 3
37 1597 5
38 1598 2
39 1599 1
40 1600 5
1 40 2
41 80 4
81 120 1
121 160 4
161 200 3
201 240 5
241 280 4
281 320 2
321 360 1
361 400 1
401 440 5
441 480 5
481 520 3
521 560 2
561 600 2
601 640 4
641 680 5
681 720 2
721 760 3
761 800 2
801 840 5
841 880 2
881 920 5
921 960 1
961 1000 5
1001 1040 1
1041 1080 5
1081 1120 1
1121 1160 2
1161 1200 1
1201 1240 2
1241 1280 1
1281 1320 2
1321 1360 5
1361 1400 4
1401 1440 5
1441 1480 4
1481 1520 1
1521 1560 3
1561 1600 3
